4 
5  11 27 42 57 
6  12 24 30 36 41 45 51 56 
7  01 06 11 16 21 26 31 36 41 46 51 56 
8  01 06 11 16 21 26 31 36 41 46 51 56 
9  01 06 11 16 21 26 32 37 42 49 57 
10  04 12 19 27 35 42 50 57 
11  05 12 20 27 35 42 50 57 
12  05 12 20 27 35 42 50 57 
13  05 12 22 29 37 44 52 59 
14  07 14 22 29 37 44 50 54 59 
15  04 09 14 19 24 29 34 39 44 49 54 59 
16  04 09 14 19 24 29 34 39 44 49 54 59 
17  04 09 14 19 24 29 34 39 44 49 54 59 
18  04 09 14 19 24 31 38 46 52 58 
19  03 09 14 17 22 29 36 44 52 59 
20  07 14 21 29 37 49 
21  04 19 34 49 
22  04 19 34 49 
23  04 19 33 
0 
